&FORCE_EVAL
  METHOD Quickstep
  &DFT
    UKS
    BASIS_SET_FILE_NAME ./GTH_BASIS_SETS_5-12-10
    POTENTIAL_FILE_NAME ./GTH_POTENTIALS_5-12-10
    WFN_RESTART_FILE_NAME x-RESTART.wfn
    &MGRID
      CUTOFF 300
    &END MGRID
    &QS
      EPS_DEFAULT 1.0E-10
      EPS_PGF_ORB 1.0E-5
    &END QS
    &SCF
      EPS_SCF 1E-6
      SCF_GUESS RESTART
      MAX_SCF 1000
      &OT T
        PRECONDITIONER FULL_ALL
        MINIMIZER CG
        LINESEARCH 3PNT
      &END OT
    &END SCF
    &XC
      &XC_FUNCTIONAL PBE
      &END XC_FUNCTIONAL
#  Van der waals correction optional
#      &vdW_POTENTIAL
#         DISPERSION_FUNCTIONAL PAIR_POTENTIAL
#         &PAIR_POTENTIAL
#            TYPE DFTD2
#            REFERENCE_FUNCTIONAL PBE
#         &END PAIR_POTENTIAL
#      &END vdW_POTENTIAL
    &END XC
    &PRINT
    &END PRINT
  &END DFT
  &SUBSYS
    &CELL
      ABC 13.0956176 11.92 32.0
    &END CELL
    &COORD
      O 3.2790406634 0.0002391317 12.6177297982
      O 9.8266812116 -0.0002973825 12.6178091686
      O 3.2812035139 2.9687182977 12.6189362766
      O 9.8278897081 2.9655446504 12.6193113514
      O 3.3495712849 5.9749823259 12.6151006189
      O 9.8317841656 5.941210784 12.6166883080 
      O 3.2807737961 8.9537971643 12.6192065337
      O 9.8283728967 8.9508912044 12.6190471874
      Ti 0.0323529128 0.0015168973 11.1375404891
      Ti 3.3004039939 1.4916116651 11.5551845836
      O 1.2635044791 1.5067777369 11.4646538180
      O 5.3572084543 1.506651693 11.4692841490
      Ti 6.5800800132 0.0013212497 11.1377097244
      Ti 9.8474849099 1.4823449022 11.5532172595
      O 7.8113948709 1.5067421085 11.4645529160
      O 11.9048913835 1.5072083264 11.4691016422
      Ti 0.0361943985 2.9871943625 11.1295249681
      Ti 3.3088202002 4.4737791097 11.5650084589
      O 1.2708404824 4.4805718754 11.4666881492
      O 5.3591129104 4.477439591 11.4671936194
      Ti 6.582188332 2.9868572721 11.1288642757
      Ti 9.849773245 4.4533366178 11.5593445224
      O 7.8171754001 4.4788923091 11.4634360008
      O 11.904786025 4.4786014716 11.4669315160
      Ti 0.0357667019 5.9595761465 11.1249798227
      Ti 3.3073031178 7.4651734479 11.5597141709
      O 1.2711152451 7.4397046428 11.4651906236
      O 5.3588510184 7.4432040804 11.4657546504
      Ti 6.5836681905 5.9604790845 11.1259813429
      Ti 9.8504703611 7.4443356668 11.5668436024
      O 7.8171351749 7.4411929221 11.4657011518
      O 11.9048697149 7.4412886917 11.4690465670
      Ti 0.033774406 8.9346764543 11.1339382163
      Ti 3.2999160833 10.4371457453 11.5531219132
      O 1.2635372982 10.4129021402 11.4649840169
      O 5.3570174992 10.4137830371 11.4696914160
      Ti 6.5838117645 8.9350804754 11.1334381185
      Ti 9.8476582578 10.4280731313 11.5550400115
      O 7.8111585819 10.4140221029 11.4651611360
      O 11.9048619591 10.4133092653 11.4697275113
      O 3.2776321322 -0.0003760834 10.0422882584
      O 9.8250976952 0.000455 10.0423352452
      O 3.2788531343 2.9628617495 10.0463634917
      O 9.8259235542 2.9668213602 10.0455059549
      O 3.2780707082 5.9254258348 10.0467923809
      O 9.8262420603 5.9946616844 10.0470220047
      O 3.2791736972 8.953241453 10.0459818630
      O 9.8255826943 8.9573759628 10.0468808980
      O 0.0018397969 0.0005323501 9.3296251589
      O 6.5496409051 0.0005220026 9.3294156988
      O 0.0025066598 2.9675214128 9.3214529227
      O 6.5501543902 2.9676452148 9.3206979476
      O 0.0058193152 5.9614732543 9.3127167506
      O 6.5534442906 5.9641292239 9.3130302507
      O 0.0020934289 8.9558989729 9.3246281244
      O 6.5500886173 8.9561534532 9.3239697597
      Ti 3.2841922759 -0.0020230611 8.1956731968
      Ti 0.0123836729 1.4944029781 7.8987402939
      O 1.9913171308 1.5058864278 8.0080975947
      O 4.5572369224 1.5052416599 8.0079803023
      Ti 9.8324289236 0.0027526006 8.1955594993
      Ti 6.5581177549 1.4943246272 7.8987909131
      O 8.5403687803 1.5073800262 8.0076552467
      O 11.1054939984 1.5064477908 8.0079181742
      Ti 3.2805295998 2.9838787481 8.2036181168
      Ti 0.0073379015 4.4800711791 7.8832389675
      O 1.9893712973 4.4777046531 8.0042473366
      O 4.5592917969 4.4779438154 8.0042953766
      Ti 9.8286177891 2.9869957713 8.1977040367
      Ti 6.5524311367 4.4802491638 7.8835937731
      O 8.5389419021 4.4794905293 8.0056858016
      O 11.1067302055 4.4795769533 8.0058025698
      Ti 3.2763726074 5.958693898 8.2067237409
      Ti 0.0024907453 7.4654498051 7.8977015453
      O 1.9920510592 7.4422798066 8.0070522659
      O 4.5563058487 7.4420981826 8.0068853515
      Ti 9.8249082328 5.9652937009 8.2069311885
      Ti 6.5530492658 7.4654858217 7.8981408049
      O 8.5397830665 7.4439135076 8.0055290016
      O 11.1060604964 7.4439436822 8.0056460927
      Ti 3.2781746441 8.9341384599 8.1981052951
      Ti 0.0080321238 10.4361734782 7.8982870214
      O 1.9913428883 10.4147036387 8.0084524654
      O 4.5570362425 10.4150415866 8.0081605656
      Ti 9.8262971237 8.9371878869 8.2045346286
      Ti 6.5583484851 10.4359740131 7.8984994398
      O 8.5397964203 10.4158429024 8.0084877064
      O 11.1063805198 10.4171249338 8.0088506010
      O 0.0002878225 0.0008859954 6.7533104561
      O 6.5481008412 0.0008678957 6.7534241545
      O 0.0001634684 2.9704290718 6.7533352341
      O 6.5482118043 2.970634193 6.7534904317
      O 0.000238128 5.9847435523 6.7522959619
      O 6.548043605 5.9847559497 6.7525513467
      O 0.0002871325 8.9559423642 6.7536539129
      O 6.5479224924 8.9560255359 6.7537253172
      O 3.2741564511 -8.81515e-05 5.9453741432
      O 9.8216254691 0.0002061925 5.9454071384
      O 3.2742114079 2.9685778372 5.9382085448
      O 9.8216222856 2.9692133519 5.9389691808
      O 3.2745809299 5.9580328494 5.9207339377
      O 9.8213961669 5.9634283044 5.9207145462
      O 3.2741861439 8.9512451795 5.9389279721
      O 9.8216226767 8.9518564404 5.9381333426
      Ti -0.0006101284 6.6675e-06 4.5878618260
      Ti 3.2735012475 1.4870361054 4.7605847547
      O 1.2738410509 1.5077192998 4.7121270296
      O 5.2738275947 1.5077042388 4.7120220605
      Ti 6.5471739243 -4.03865e-05 4.5878796964
      Ti 9.821557191 1.4887760133 4.7592172623
      O 7.8215922758 1.5076645795 4.7121781963
      O 11.8214654281 1.5076552497 4.7119814756
      Ti -0.0002100756 2.9870581223 4.5857625548
      Ti 3.2739804648 4.4644562946 4.7569488024
      O 1.2759945178 4.4786160068 4.7129659337
      O 5.2717243226 4.4786078922 4.7128883450
      Ti 6.5476451724 2.9869863039 4.5857725978
      Ti 9.8218128055 4.4681983843 4.7573282426
      O 7.8238521675 4.4787332037 4.7131433076
      O 11.8193032894 4.4787405333 4.7130366681
      Ti -3.38721e-05 5.9614704973 4.5852275084
      Ti 3.2739152637 7.4532055503 4.7579741836
      O 1.2766664113 7.4421719156 4.7120459990
      O 5.2710496961 7.4421710748 4.7120066781
      Ti 6.5477690558 5.9614754991 4.5852443825
      Ti 9.8217870005 7.456958872 4.7576733623
      O 7.8242514763 7.44229328 4.7118996909
      O 11.8189062115 7.4422891196 4.7118197826
      Ti -0.0001455193 8.9330969073 4.5861774792
      Ti 3.2734792343 10.4321559614 4.7588124368
      O 1.2739736084 10.4128601482 4.7120061468
      O 5.2736857368 10.4128902645 4.7119094122
      Ti 6.5476350899 8.9331375003 4.5862536691
      Ti 9.8215406138 10.4338393346 4.7601176579
      O 7.8216183697 10.4128226066 4.7120420379
      O 11.8214481474 10.4128334514 4.7118803353
      O 3.274158861 -7.18821e-05 3.3366091771
      O 9.8213962917 0.0002019356 3.3365848975
      O 3.2741707258 2.9680985594 3.3207816521
      O 9.8213809338 2.9683613248 3.3225381408
      O 3.274428308 5.9602160947 3.3233668118
      O 9.8211545806 5.9569724241 3.3231439370
      O 3.2741723011 8.95185283 3.3217603202
      O 9.8213974886 8.952121606 3.3200829904
      O 0.0 0.0 2.7304400000
      O 6.54781 0.0 2.7304400000
      O 0.0 2.98 2.7304400000
      O 6.54781 2.98 2.7304400000
      O 0.0 5.96 2.7304400000
      O 6.54781 5.96 2.7304400000
      O 0.0 8.94 2.7304400000
      O 6.54781 8.94 2.7304400000
      Ti 3.2739 0.0 1.4405200000
      Ti 0.0 1.49 1.4405200000
      O 1.98399 1.49 1.4405200000
      O 4.56382 1.49 1.4405200000
      Ti 9.82171 0.0 1.4405200000
      Ti 6.54781 1.49 1.4405200000
      O 8.53179 1.49 1.4405200000
      O 11.11163 1.49 1.4405200000
      Ti 3.2739 2.98 1.4405200000
      Ti 0.0 4.47 1.4405200000
      O 1.98399 4.47 1.4405200000
      O 4.56382 4.47 1.4405200000
      Ti 9.82171 2.98 1.4405200000
      Ti 6.54781 4.47 1.4405200000
      O 8.53179 4.47 1.4405200000
      O 11.11163 4.47 1.4405200000
      Ti 3.2739 5.96 1.4405200000
      Ti 0.0 7.45 1.4405200000
      O 1.98399 7.45 1.4405200000
      O 4.56382 7.45 1.4405200000
      Ti 9.82171 5.96 1.4405200000
      Ti 6.54781 7.45 1.4405200000
      O 8.53179 7.45 1.4405200000
      O 11.11163 7.45 1.4405200000
      Ti 3.2739 8.94 1.4405200000
      Ti 0.0 10.43 1.4405200000
      O 1.98399 10.43 1.4405200000
      O 4.56382 10.43 1.4405200000
      Ti 9.82171 8.94 1.4405200000
      Ti 6.54781 10.43 1.4405200000
      O 8.53179 10.43 1.4405200000
      O 11.11163 10.43 1.4405200000
      O 0.0 0.0 0.1506000000
      O 6.54781 0.0 0.1506000000
      O 0.0 2.98 0.1506000000
      O 6.54781 2.98 0.1506000000
      O 0.0 5.96 0.1506000000
      O 6.54781 5.96 0.1506000000
      O 0.0 8.94 0.1506000000
      O 6.54781 8.94 0.1506000000
      H 3.2812035139 2.9687182977 13.7189362766
      H 3.2812035139 0.0 13.7189362766
      H 9.8266812116 2.9687182977 13.7189362766
      H 9.8266812116 0.0 13.7189362766
    &END COORD
    &KIND Ti
      BASIS_SET MOD-DZVP-GTH
      POTENTIAL GTH-PBE-q12
      &DFT_PLUS_U
        L 2
        U_MINUS_J 0.16537198
      &END DFT_PLUS_U
    &END KIND
    &KIND O
      BASIS_SET DZVP-MOLOPT-GTH
      POTENTIAL GTH-PBE-q6
    &END KIND
    &KIND H
      BASIS_SET DZVP-MOLOPT-GTH
      POTENTIAL GTH-PBE-q1
    &END KIND
    &KIND C
      BASIS_SET DZVP-MOLOPT-GTH
      POTENTIAL GTH-PBE-q4
    &END KIND
  &END SUBSYS
&END FORCE_EVAL
&GLOBAL
  PROJECT 4x2x4-4H-U45
  RUN_TYPE GEO_OPT
  PRINT_LEVEL LOW
&END GLOBAL
&MOTION
  &GEO_OPT
    MAX_ITER 200
    MAX_FORCE 0.0009725
    OPTIMIZER BFGS
  &END GEO_OPT
  &CONSTRAINT
    &FIXED_ATOMS
      LIST 145 146 147 148 149 150 151 152 153 154 155 156 157 158 159 160 161 162 163 164 165 166 167 168 169 170 171 172 173 174 175 176 177 178 179 180 181 182 183 184 185 186 187 188 189 190 191 192
    &END FIXED_ATOMS
  &END CONSTRAINT
&END MOTION
